certificates/rado_a13_c280_N51.cnf
c Rad2 upper bound instance: x1 + 13*x2 - x3 = 280, interval [1,51]
p cnf 51 398
1 7 22 0
-1 -7 -22 0
1 20 23 0
-1 -20 -23 0
1 24 33 0
-1 -24 -33 0
1 25 46 0
-1 -25 -46 0
2 8 22 0
-2 -8 -22 0
2 21 23 0
-2 -21 -23 0
2 24 34 0
-2 -24 -34 0
2 25 47 0
-2 -25 -47 0
3 9 22 0
-3 -9 -22 0
3 22 23 0
-3 -22 -23 0
3 24 35 0
-3 -24 -35 0
3 25 48 0
-3 -25 -48 0
4 10 22 0
-4 -10 -22 0
4 23 0
-4 -23 0
4 24 36 0
-4 -24 -36 0
4 25 49 0
-4 -25 -49 0
5 11 22 0
-5 -11 -22 0
5 23 24 0
-5 -23 -24 0
5 24 37 0
-5 -24 -37 0
5 25 50 0
-5 -25 -50 0
6 12 22 0
-6 -12 -22 0
6 23 25 0
-6 -23 -25 0
6 24 38 0
-6 -24 -38 0
6 25 51 0
-6 -25 -51 0
7 13 22 0
-7 -13 -22 0
7 23 26 0
-7 -23 -26 0
7 24 39 0
-7 -24 -39 0
1 8 21 0
-1 -8 -21 0
8 14 22 0
-8 -14 -22 0
8 23 27 0
-8 -23 -27 0
8 24 40 0
-8 -24 -40 0
2 9 21 0
-2 -9 -21 0
9 15 22 0
-9 -15 -22 0
9 23 28 0
-9 -23 -28 0
9 24 41 0
-9 -24 -41 0
3 10 21 0
-3 -10 -21 0
10 16 22 0
-10 -16 -22 0
10 23 29 0
-10 -23 -29 0
10 24 42 0
-10 -24 -42 0
4 11 21 0
-4 -11 -21 0
11 17 22 0
-11 -17 -22 0
11 23 30 0
-11 -23 -30 0
11 24 43 0
-11 -24 -43 0
5 12 21 0
-5 -12 -21 0
12 18 22 0
-12 -18 -22 0
12 23 31 0
-12 -23 -31 0
12 24 44 0
-12 -24 -44 0
6 13 21 0
-6 -13 -21 0
13 19 22 0
-13 -19 -22 0
13 23 32 0
-13 -23 -32 0
13 24 45 0
-13 -24 -45 0
7 14 21 0
-7 -14 -21 0
14 20 22 0
-14 -20 -22 0
14 23 33 0
-14 -23 -33 0
14 24 46 0
-14 -24 -46 0
8 15 21 0
-8 -15 -21 0
15 21 22 0
-15 -21 -22 0
15 23 34 0
-15 -23 -34 0
15 24 47 0
-15 -24 -47 0
9 16 21 0
-9 -16 -21 0
16 22 0
-16 -22 0
16 23 35 0
-16 -23 -35 0
16 24 48 0
-16 -24 -48 0
10 17 21 0
-10 -17 -21 0
17 22 23 0
-17 -22 -23 0
17 23 36 0
-17 -23 -36 0
17 24 49 0
-17 -24 -49 0
11 18 21 0
-11 -18 -21 0
18 22 24 0
-18 -22 -24 0
18 23 37 0
-18 -23 -37 0
18 24 50 0
-18 -24 -50 0
12 19 21 0
-12 -19 -21 0
19 22 25 0
-19 -22 -25 0
19 23 38 0
-19 -23 -38 0
19 24 51 0
-19 -24 -51 0
13 20 21 0
-13 -20 -21 0
20 22 26 0
-20 -22 -26 0
20 23 39 0
-20 -23 -39 0
1 20 21 0
-1 -20 -21 0
14 21 0
-14 -21 0
21 22 27 0
-21 -22 -27 0
21 23 40 0
-21 -23 -40 0
2 20 22 0
-2 -20 -22 0
22 28 0
-22 -28 0
22 23 41 0
-22 -23 -41 0
3 20 23 0
-3 -20 -23 0
16 21 23 0
-16 -21 -23 0
22 23 29 0
-22 -23 -29 0
23 42 0
-23 -42 0
4 20 24 0
-4 -20 -24 0
17 21 24 0
-17 -21 -24 0
22 24 30 0
-22 -24 -30 0
23 24 43 0
-23 -24 -43 0
5 20 25 0
-5 -20 -25 0
18 21 25 0
-18 -21 -25 0
22 25 31 0
-22 -25 -31 0
23 25 44 0
-23 -25 -44 0
6 20 26 0
-6 -20 -26 0
19 21 26 0
-19 -21 -26 0
22 26 32 0
-22 -26 -32 0
23 26 45 0
-23 -26 -45 0
7 20 27 0
-7 -20 -27 0
20 21 27 0
-20 -21 -27 0
22 27 33 0
-22 -27 -33 0
23 27 46 0
-23 -27 -46 0
8 20 28 0
-8 -20 -28 0
21 28 0
-21 -28 0
22 28 34 0
-22 -28 -34 0
23 28 47 0
-23 -28 -47 0
9 20 29 0
-9 -20 -29 0
21 22 29 0
-21 -22 -29 0
22 29 35 0
-22 -29 -35 0
23 29 48 0
-23 -29 -48 0
10 20 30 0
-10 -20 -30 0
21 23 30 0
-21 -23 -30 0
22 30 36 0
-22 -30 -36 0
23 30 49 0
-23 -30 -49 0
11 20 31 0
-11 -20 -31 0
21 24 31 0
-21 -24 -31 0
22 31 37 0
-22 -31 -37 0
23 31 50 0
-23 -31 -50 0
12 20 32 0
-12 -20 -32 0
21 25 32 0
-21 -25 -32 0
22 32 38 0
-22 -32 -38 0
23 32 51 0
-23 -32 -51 0
13 20 33 0
-13 -20 -33 0
21 26 33 0
-21 -26 -33 0
22 33 39 0
-22 -33 -39 0
1 19 34 0
-1 -19 -34 0
14 20 34 0
-14 -20 -34 0
21 27 34 0
-21 -27 -34 0
22 34 40 0
-22 -34 -40 0
2 19 35 0
-2 -19 -35 0
15 20 35 0
-15 -20 -35 0
21 28 35 0
-21 -28 -35 0
22 35 41 0
-22 -35 -41 0
3 19 36 0
-3 -19 -36 0
16 20 36 0
-16 -20 -36 0
21 29 36 0
-21 -29 -36 0
22 36 42 0
-22 -36 -42 0
4 19 37 0
-4 -19 -37 0
17 20 37 0
-17 -20 -37 0
21 30 37 0
-21 -30 -37 0
22 37 43 0
-22 -37 -43 0
5 19 38 0
-5 -19 -38 0
18 20 38 0
-18 -20 -38 0
21 31 38 0
-21 -31 -38 0
22 38 44 0
-22 -38 -44 0
6 19 39 0
-6 -19 -39 0
19 20 39 0
-19 -20 -39 0
21 32 39 0
-21 -32 -39 0
22 39 45 0
-22 -39 -45 0
7 19 40 0
-7 -19 -40 0
20 40 0
-20 -40 0
21 33 40 0
-21 -33 -40 0
22 40 46 0
-22 -40 -46 0
8 19 41 0
-8 -19 -41 0
20 21 41 0
-20 -21 -41 0
21 34 41 0
-21 -34 -41 0
22 41 47 0
-22 -41 -47 0
9 19 42 0
-9 -19 -42 0
20 22 42 0
-20 -22 -42 0
21 35 42 0
-21 -35 -42 0
22 42 48 0
-22 -42 -48 0
10 19 43 0
-10 -19 -43 0
20 23 43 0
-20 -23 -43 0
21 36 43 0
-21 -36 -43 0
22 43 49 0
-22 -43 -49 0
11 19 44 0
-11 -19 -44 0
20 24 44 0
-20 -24 -44 0
21 37 44 0
-21 -37 -44 0
22 44 50 0
-22 -44 -50 0
12 19 45 0
-12 -19 -45 0
20 25 45 0
-20 -25 -45 0
21 38 45 0
-21 -38 -45 0
22 45 51 0
-22 -45 -51 0
13 19 46 0
-13 -19 -46 0
20 26 46 0
-20 -26 -46 0
21 39 46 0
-21 -39 -46 0
1 18 47 0
-1 -18 -47 0
14 19 47 0
-14 -19 -47 0
20 27 47 0
-20 -27 -47 0
21 40 47 0
-21 -40 -47 0
2 18 48 0
-2 -18 -48 0
15 19 48 0
-15 -19 -48 0
20 28 48 0
-20 -28 -48 0
21 41 48 0
-21 -41 -48 0
3 18 49 0
-3 -18 -49 0
16 19 49 0
-16 -19 -49 0
20 29 49 0
-20 -29 -49 0
21 42 49 0
-21 -42 -49 0
4 18 50 0
-4 -18 -50 0
17 19 50 0
-17 -19 -50 0
20 30 50 0
-20 -30 -50 0
21 43 50 0
-21 -43 -50 0
5 18 51 0
-5 -18 -51 0
18 19 51 0
-18 -19 -51 0
20 31 51 0
-20 -31 -51 0
21 44 51 0
-21 -44 -51 0
