certificates/rado_a13_c280_N51.drat
22 -46 -47 -48 -49 0
-46 -47 -48 -49 -51 0
-21 46 -47 -51 0
46 -47 -51 0
d -21 46 -47 -51 0
-47 -48 -51 -49 0
d -46 -47 -48 -49 -51 0
-28 -48 0
-48 -49 -51 0
d -47 -48 -51 -49 0
28 48 -50 0
-49 -50 -51 0
48 49 -50 0
-50 -51 0
d -49 -50 -51 0
-48 -51 0
d -48 -49 -51 0
28 -51 0
-24 -51 0
-51 0
21 -19 0
24 0
-19 0
18 0
-22 0
-50 0
16 0
28 0
45 0
44 0
13 0
25 0
17 0
-48 0
-21 0
0
